# LAMMPS group commands generated by SmilesToLammps
# Each line defines a group by ID list or range.
# Usage: include this file in your LAMMPS input via 'include groups.lmp'

group All id 1:3420
group c_aliphatic id 4:8 10:12 16:18 20 24:28 30 34:36 93:97 99:101 105:107 109 113:117 119 123:125 182:186 188:190 194:196 198 202:206 208 212:214 271:275 277:279 283:285 287 291:295 297 301:303 360:364 366:368 372:374 376 380:384 386 390:392 449:453 455:457 461:463 465 469:473 475 479:481 538:542 544:546 550:552 554 558:562 564 568:570 627:631 633:635 639:641 643 647:651 653 657:659 716:720 722:724 728:730 732 736:740 742 746:748 805:809 811:813 817:819 821 825:829 831 835:837 894:898 900:902 906:908 910 914:918 920 924:926 983:987 989:991 995:997 999 1003:1007 1009 1013:1015 1072:1076 1078:1080 1084:1086 1088 1092:1096 1098 1102:1104 1161:1165 1167:1169 1173:1175 1177 1181:1185 1187 1191:1193 1250:1254 1256:1258 1262:1264 1266 1270:1274 1276 1280:1282 1339:1343 1345:1347 1351:1353 1355 1359:1363 1365 1369:1371 1428:1432 1434:1436 1440:1442 1444 1448:1452 1454 1458:1460 1517:1521 1523:1525 1529:1531 1533 1537:1541 1543 1547:1549 1606:1610 1612:1614 1618:1620 1622 1626:1630 1632 1636:1638 1695:1699 1701:1703 1707:1709 1711 1715:1719 1721 1725:1727 1781:1788 1798:1805 1853:1860 1870:1877 1925:1932 1942:1949 1997:2004 2014:2021 2069:2076 2086:2093 2141:2148 2158:2165 2213:2220 2230:2237 2285:2292 2302:2309 2357:2364 2374:2381 2429:2436 2446:2453 2501:2508 2518:2525 2573:2580 2590:2597 2645:2652 2662:2669 2717:2724 2734:2741 2789:2796 2806:2813 2861:2868 2878:2885 2933:2940 2950:2957 3005:3012 3022:3029 3077:3084 3094:3101 3149:3156 3166:3173
group c_alpha_to_carbonyl id 3 15 23 33 92 104 112 122 181 193 201 211 270 282 290 300 359 371 379 389 448 460 468 478 537 549 557 567 626 638 646 656 715 727 735 745 804 816 824 834 893 905 913 923 982 994 1002 1012 1071 1083 1091 1101 1160 1172 1180 1190 1249 1261 1269 1279 1338 1350 1358 1368 1427 1439 1447 1457 1516 1528 1536 1546 1605 1617 1625 1635 1694 1706 1714 1724
group c_ar id 1789:1792 1794:1797 1806:1809 1861:1864 1866:1869 1878:1881 1933:1936 1938:1941 1950:1953 2005:2008 2010:2013 2022:2025 2077:2080 2082:2085 2094:2097 2149:2152 2154:2157 2166:2169 2221:2224 2226:2229 2238:2241 2293:2296 2298:2301 2310:2313 2365:2368 2370:2373 2382:2385 2437:2440 2442:2445 2454:2457 2509:2512 2514:2517 2526:2529 2581:2584 2586:2589 2598:2601 2653:2656 2658:2661 2670:2673 2725:2728 2730:2733 2742:2745 2797:2800 2802:2805 2814:2817 2869:2872 2874:2877 2886:2889 2941:2944 2946:2949 2958:2961 3013:3016 3018:3021 3030:3033 3085:3088 3090:3093 3102:3105 3157:3160 3162:3165 3174:3177
group c_carbonyl id 2 14 22 32 91 103 111 121 180 192 200 210 269 281 289 299 358 370 378 388 447 459 467 477 536 548 556 566 625 637 645 655 714 726 734 744 803 815 823 833 892 904 912 922 981 993 1001 1011 1070 1082 1090 1100 1159 1171 1179 1189 1248 1260 1268 1278 1337 1349 1357 1367 1426 1438 1446 1456 1515 1527 1535 1545 1604 1616 1624 1634 1693 1705 1713 1723
group h_aliphatic id 40:54 57:65 68:80 83:89 129:143 146:154 157:169 172:178 218:232 235:243 246:258 261:267 307:321 324:332 335:347 350:356 396:410 413:421 424:436 439:445 485:499 502:510 513:525 528:534 574:588 591:599 602:614 617:623 663:677 680:688 691:703 706:712 752:766 769:777 780:792 795:801 841:855 858:866 869:881 884:890 930:944 947:955 958:970 973:979 1019:1033 1036:1044 1047:1059 1062:1068 1108:1122 1125:1133 1136:1148 1151:1157 1197:1211 1214:1222 1225:1237 1240:1246 1286:1300 1303:1311 1314:1326 1329:1335 1375:1389 1392:1400 1403:1415 1418:1424 1464:1478 1481:1489 1492:1504 1507:1513 1553:1567 1570:1578 1581:1593 1596:1602 1642:1656 1659:1667 1670:1682 1685:1691 1731:1745 1748:1756 1759:1771 1774:1780 1810:1826 1832:1848 1882:1898 1904:1920 1954:1970 1976:1992 2026:2042 2048:2064 2098:2114 2120:2136 2170:2186 2192:2208 2242:2258 2264:2280 2314:2330 2336:2352 2386:2402 2408:2424 2458:2474 2480:2496 2530:2546 2552:2568 2602:2618 2624:2640 2674:2690 2696:2712 2746:2762 2768:2784 2818:2834 2840:2856 2890:2906 2912:2928 2962:2978 2984:3000 3034:3050 3056:3072 3106:3122 3128:3144 3178:3194 3200:3216
group h_alpha id 38:39 55:56 66:67 81:82 127:128 144:145 155:156 170:171 216:217 233:234 244:245 259:260 305:306 322:323 333:334 348:349 394:395 411:412 422:423 437:438 483:484 500:501 511:512 526:527 572:573 589:590 600:601 615:616 661:662 678:679 689:690 704:705 750:751 767:768 778:779 793:794 839:840 856:857 867:868 882:883 928:929 945:946 956:957 971:972 1017:1018 1034:1035 1045:1046 1060:1061 1106:1107 1123:1124 1134:1135 1149:1150 1195:1196 1212:1213 1223:1224 1238:1239 1284:1285 1301:1302 1312:1313 1327:1328 1373:1374 1390:1391 1401:1402 1416:1417 1462:1463 1479:1480 1490:1491 1505:1506 1551:1552 1568:1569 1579:1580 1594:1595 1640:1641 1657:1658 1668:1669 1683:1684 1729:1730 1746:1747 1757:1758 1772:1773
group h_aromatic id 1827:1828 1830:1831 1849:1852 1899:1900 1902:1903 1921:1924 1971:1972 1974:1975 1993:1996 2043:2044 2046:2047 2065:2068 2115:2116 2118:2119 2137:2140 2187:2188 2190:2191 2209:2212 2259:2260 2262:2263 2281:2284 2331:2332 2334:2335 2353:2356 2403:2404 2406:2407 2425:2428 2475:2476 2478:2479 2497:2500 2547:2548 2550:2551 2569:2572 2619:2620 2622:2623 2641:2644 2691:2692 2694:2695 2713:2716 2763:2764 2766:2767 2785:2788 2835:2836 2838:2839 2857:2860 2907:2908 2910:2911 2929:2932 2979:2980 2982:2983 3001:3004 3051:3052 3054:3055 3073:3076 3123:3124 3126:3127 3145:3148 3195:3196 3198:3199 3217:3220
group h_nh id 1829 1901 1973 2045 2117 2189 2261 2333 2405 2477 2549 2621 2693 2765 2837 2909 2981 3053 3125 3197
group n_amine id 1793 1865 1937 2009 2081 2153 2225 2297 2369 2441 2513 2585 2657 2729 2801 2873 2945 3017 3089 3161
group o2_oxygen id 3221 3223 3225 3227 3229 3231 3233 3235 3237 3239 3241 3243 3245 3247 3249 3251 3253 3255 3257 3259 3261 3263 3265 3267 3269 3271 3273 3275 3277 3279 3281 3283 3285 3287 3289 3291 3293 3295 3297 3299 3301 3303 3305 3307 3309 3311 3313 3315 3317 3319 3321 3323 3325 3327 3329 3331 3333 3335 3337 3339 3341 3343 3345 3347 3349 3351 3353 3355 3357 3359 3361 3363 3365 3367 3369 3371 3373 3375 3377 3379 3381 3383 3385 3387 3389 3391 3393 3395 3397 3399 3401 3403 3405 3407 3409 3411 3413 3415 3417 3419
group o_carbonyl id 1 19 29 37 90 108 118 126 179 197 207 215 268 286 296 304 357 375 385 393 446 464 474 482 535 553 563 571 624 642 652 660 713 731 741 749 802 820 830 838 891 909 919 927 980 998 1008 1016 1069 1087 1097 1105 1158 1176 1186 1194 1247 1265 1275 1283 1336 1354 1364 1372 1425 1443 1453 1461 1514 1532 1542 1550 1603 1621 1631 1639 1692 1710 1720 1728
group o_ester_single id 9 13 21 31 98 102 110 120 187 191 199 209 276 280 288 298 365 369 377 387 454 458 466 476 543 547 555 565 632 636 644 654 721 725 733 743 810 814 822 832 899 903 911 921 988 992 1000 1010 1077 1081 1089 1099 1166 1170 1178 1188 1255 1259 1267 1277 1344 1348 1356 1366 1433 1437 1445 1455 1522 1526 1534 1544 1611 1615 1623 1633 1700 1704 1712 1722
group other id 3222 3224 3226 3228 3230 3232 3234 3236 3238 3240 3242 3244 3246 3248 3250 3252 3254 3256 3258 3260 3262 3264 3266 3268 3270 3272 3274 3276 3278 3280 3282 3284 3286 3288 3290 3292 3294 3296 3298 3300 3302 3304 3306 3308 3310 3312 3314 3316 3318 3320 3322 3324 3326 3328 3330 3332 3334 3336 3338 3340 3342 3344 3346 3348 3350 3352 3354 3356 3358 3360 3362 3364 3366 3368 3370 3372 3374 3376 3378 3380 3382 3384 3386 3388 3390 3392 3394 3396 3398 3400 3402 3404 3406 3408 3410 3412 3414 3416 3418 3420
group h_all id 38:89 127:178 216:267 305:356 394:445 483:534 572:623 661:712 750:801 839:890 928:979 1017:1068 1106:1157 1195:1246 1284:1335 1373:1424 1462:1513 1551:1602 1640:1691 1729:1780 1810:1852 1882:1924 1954:1996 2026:2068 2098:2140 2170:2212 2242:2284 2314:2356 2386:2428 2458:2500 2530:2572 2602:2644 2674:2716 2746:2788 2818:2860 2890:2932 2962:3004 3034:3076 3106:3148 3178:3220
group c_all id 2:8 10:12 14:18 20 22:28 30 32:36 91:97 99:101 103:107 109 111:117 119 121:125 180:186 188:190 192:196 198 200:206 208 210:214 269:275 277:279 281:285 287 289:295 297 299:303 358:364 366:368 370:374 376 378:384 386 388:392 447:453 455:457 459:463 465 467:473 475 477:481 536:542 544:546 548:552 554 556:562 564 566:570 625:631 633:635 637:641 643 645:651 653 655:659 714:720 722:724 726:730 732 734:740 742 744:748 803:809 811:813 815:819 821 823:829 831 833:837 892:898 900:902 904:908 910 912:918 920 922:926 981:987 989:991 993:997 999 1001:1007 1009 1011:1015 1070:1076 1078:1080 1082:1086 1088 1090:1096 1098 1100:1104 1159:1165 1167:1169 1171:1175 1177 1179:1185 1187 1189:1193 1248:1254 1256:1258 1260:1264 1266 1268:1274 1276 1278:1282 1337:1343 1345:1347 1349:1353 1355 1357:1363 1365 1367:1371 1426:1432 1434:1436 1438:1442 1444 1446:1452 1454 1456:1460 1515:1521 1523:1525 1527:1531 1533 1535:1541 1543 1545:1549 1604:1610 1612:1614 1616:1620 1622 1624:1630 1632 1634:1638 1693:1699 1701:1703 1705:1709 1711 1713:1719 1721 1723:1727 1781:1792 1794:1809 1853:1864 1866:1881 1925:1936 1938:1953 1997:2008 2010:2025 2069:2080 2082:2097 2141:2152 2154:2169 2213:2224 2226:2241 2285:2296 2298:2313 2357:2368 2370:2385 2429:2440 2442:2457 2501:2512 2514:2529 2573:2584 2586:2601 2645:2656 2658:2673 2717:2728 2730:2745 2789:2800 2802:2817 2861:2872 2874:2889 2933:2944 2946:2961 3005:3016 3018:3033 3077:3088 3090:3105 3149:3160 3162:3177
group o_all id 1 9 13 19 21 29 31 37 90 98 102 108 110 118 120 126 179 187 191 197 199 207 209 215 268 276 280 286 288 296 298 304 357 365 369 375 377 385 387 393 446 454 458 464 466 474 476 482 535 543 547 553 555 563 565 571 624 632 636 642 644 652 654 660 713 721 725 731 733 741 743 749 802 810 814 820 822 830 832 838 891 899 903 909 911 919 921 927 980 988 992 998 1000 1008 1010 1016 1069 1077 1081 1087 1089 1097 1099 1105 1158 1166 1170 1176 1178 1186 1188 1194 1247 1255 1259 1265 1267 1275 1277 1283 1336 1344 1348 1354 1356 1364 1366 1372 1425 1433 1437 1443 1445 1453 1455 1461 1514 1522 1526 1532 1534 1542 1544 1550 1603 1611 1615 1621 1623 1631 1633 1639 1692 1700 1704 1710 1712 1720 1722 1728 3221:3420
group n_all id 1793 1865 1937 2009 2081 2153 2225 2297 2369 2441 2513 2585 2657 2729 2801 2873 2945 3017 3089 3161
group heavy_all id 1:37 90:126 179:215 268:304 357:393 446:482 535:571 624:660 713:749 802:838 891:927 980:1016 1069:1105 1158:1194 1247:1283 1336:1372 1425:1461 1514:1550 1603:1639 1692:1728 1781:1809 1853:1881 1925:1953 1997:2025 2069:2097 2141:2169 2213:2241 2285:2313 2357:2385 2429:2457 2501:2529 2573:2601 2645:2673 2717:2745 2789:2817 2861:2889 2933:2961 3005:3033 3077:3105 3149:3177 3221:3420
group DPA id 1781:3220
group EST id 1:1780
group OXY id 3221:3420
